c FILE: random-n100-d20-i-n100-d20-1.col

p edge 100 990
e 1 3
e 1 4
e 1 5
e 1 7
e 1 11
e 1 17
e 1 19
e 1 22
e 1 31
e 1 41
e 1 47
e 1 50
e 1 59
e 1 64
e 1 66
e 1 78
e 1 86
e 1 94
e 1 95
e 1 96
e 2 3
e 2 6
e 2 7
e 2 14
e 2 16
e 2 20
e 2 21
e 2 22
e 2 33
e 2 37
e 2 38
e 2 41
e 2 44
e 2 56
e 2 60
e 2 66
e 2 67
e 2 74
e 2 78
e 2 80
e 2 84
e 3 10
e 3 13
e 3 21
e 3 25
e 3 30
e 3 38
e 3 39
e 3 41
e 3 43
e 3 52
e 3 58
e 3 70
e 3 74
e 3 75
e 3 82
e 3 83
e 3 87
e 3 90
e 3 92
e 3 99
e 4 15
e 4 20
e 4 22
e 4 27
e 4 31
e 4 42
e 4 45
e 4 51
e 4 52
e 4 56
e 4 59
e 4 60
e 4 62
e 4 63
e 4 76
e 4 90
e 4 92
e 4 94
e 4 97
e 5 6
e 5 19
e 5 23
e 5 26
e 5 30
e 5 49
e 5 52
e 5 59
e 5 61
e 5 64
e 5 75
e 5 84
e 5 85
e 5 90
e 6 7
e 6 14
e 6 19
e 6 21
e 6 22
e 6 23
e 6 31
e 6 36
e 6 42
e 6 51
e 6 54
e 6 61
e 6 65
e 6 73
e 6 84
e 6 86
e 6 87
e 6 90
e 6 92
e 7 11
e 7 12
e 7 17
e 7 18
e 7 20
e 7 32
e 7 33
e 7 34
e 7 43
e 7 44
e 7 45
e 7 50
e 7 51
e 7 52
e 7 64
e 7 65
e 7 70
e 7 73
e 7 76
e 7 84
e 7 86
e 7 89
e 7 92
e 7 93
e 7 95
e 7 96
e 7 100
e 8 14
e 8 23
e 8 28
e 8 33
e 8 43
e 8 51
e 8 53
e 8 55
e 8 60
e 8 73
e 8 74
e 8 79
e 8 80
e 8 82
e 8 85
e 8 86
e 8 89
e 8 94
e 8 98
e 9 11
e 9 12
e 9 16
e 9 17
e 9 18
e 9 20
e 9 21
e 9 24
e 9 29
e 9 34
e 9 35
e 9 39
e 9 48
e 9 70
e 9 75
e 9 76
e 9 80
e 9 87
e 9 98
e 10 28
e 10 32
e 10 42
e 10 44
e 10 47
e 10 54
e 10 60
e 10 63
e 10 72
e 10 74
e 10 81
e 10 89
e 10 90
e 10 93
e 10 95
e 10 96
e 10 99
e 10 100
e 11 14
e 11 16
e 11 17
e 11 25
e 11 28
e 11 30
e 11 32
e 11 37
e 11 49
e 11 55
e 11 56
e 11 58
e 11 74
e 11 80
e 11 81
e 11 86
e 11 95
e 11 99
e 12 16
e 12 20
e 12 25
e 12 29
e 12 34
e 12 37
e 12 38
e 12 40
e 12 41
e 12 48
e 12 53
e 12 59
e 12 65
e 12 67
e 12 72
e 12 82
e 12 95
e 12 100
e 13 25
e 13 35
e 13 48
e 13 50
e 13 51
e 13 58
e 13 61
e 13 69
e 13 74
e 13 76
e 13 93
e 13 97
e 13 98
e 13 100
e 14 20
e 14 25
e 14 33
e 14 38
e 14 39
e 14 44
e 14 47
e 14 48
e 14 54
e 14 61
e 14 69
e 14 73
e 14 87
e 14 90
e 14 97
e 14 99
e 15 17
e 15 28
e 15 34
e 15 35
e 15 37
e 15 39
e 15 46
e 15 53
e 15 63
e 15 72
e 15 75
e 15 97
e 15 100
e 16 22
e 16 28
e 16 33
e 16 37
e 16 41
e 16 48
e 16 53
e 16 59
e 16 85
e 16 91
e 16 92
e 17 25
e 17 26
e 17 31
e 17 35
e 17 42
e 17 51
e 17 63
e 17 64
e 17 68
e 17 70
e 17 76
e 17 83
e 17 85
e 17 89
e 17 94
e 17 97
e 17 99
e 18 19
e 18 21
e 18 22
e 18 28
e 18 30
e 18 37
e 18 41
e 18 43
e 18 46
e 18 51
e 18 54
e 18 55
e 18 56
e 18 57
e 18 65
e 18 68
e 18 71
e 18 74
e 18 80
e 18 83
e 18 91
e 18 99
e 19 35
e 19 40
e 19 48
e 19 53
e 19 59
e 19 69
e 19 74
e 19 81
e 19 87
e 19 89
e 19 90
e 20 25
e 20 30
e 20 32
e 20 42
e 20 43
e 20 49
e 20 59
e 20 75
e 20 77
e 20 87
e 20 93
e 20 97
e 21 30
e 21 36
e 21 52
e 21 54
e 21 60
e 21 61
e 21 67
e 21 70
e 21 73
e 21 74
e 21 78
e 21 87
e 21 97
e 22 25
e 22 27
e 22 30
e 22 42
e 22 45
e 22 75
e 22 85
e 22 89
e 22 90
e 22 95
e 22 100
e 23 24
e 23 25
e 23 30
e 23 34
e 23 36
e 23 41
e 23 45
e 23 48
e 23 49
e 23 54
e 23 58
e 23 61
e 23 62
e 23 64
e 23 65
e 23 70
e 23 77
e 23 86
e 23 88
e 23 92
e 24 28
e 24 31
e 24 35
e 24 36
e 24 48
e 24 50
e 24 51
e 24 54
e 24 55
e 24 59
e 24 69
e 24 74
e 24 78
e 24 83
e 24 86
e 25 29
e 25 32
e 25 33
e 25 40
e 25 42
e 25 46
e 25 50
e 25 70
e 25 75
e 25 79
e 25 83
e 25 87
e 25 92
e 26 29
e 26 33
e 26 34
e 26 46
e 26 50
e 26 52
e 26 62
e 26 64
e 26 65
e 26 70
e 26 81
e 26 88
e 26 100
e 27 28
e 27 29
e 27 33
e 27 37
e 27 38
e 27 41
e 27 43
e 27 50
e 27 51
e 27 71
e 27 85
e 27 86
e 27 98
e 27 99
e 28 29
e 28 36
e 28 51
e 28 54
e 28 56
e 28 58
e 28 66
e 28 67
e 28 74
e 28 79
e 28 81
e 28 85
e 28 89
e 28 91
e 28 92
e 28 93
e 28 96
e 29 33
e 29 35
e 29 36
e 29 38
e 29 60
e 29 73
e 29 76
e 29 77
e 29 80
e 29 85
e 29 86
e 29 87
e 30 35
e 30 36
e 30 46
e 30 47
e 30 48
e 30 59
e 30 61
e 30 71
e 30 75
e 30 84
e 30 87
e 30 94
e 30 100
e 31 32
e 31 35
e 31 36
e 31 38
e 31 44
e 31 53
e 31 55
e 31 57
e 31 59
e 31 60
e 31 81
e 31 84
e 31 89
e 31 95
e 31 100
e 32 33
e 32 35
e 32 36
e 32 38
e 32 48
e 32 55
e 32 56
e 32 62
e 32 64
e 32 68
e 32 74
e 32 75
e 32 82
e 32 83
e 32 86
e 32 89
e 32 91
e 32 96
e 32 98
e 33 38
e 33 39
e 33 40
e 33 47
e 33 56
e 33 58
e 33 59
e 33 60
e 33 61
e 33 67
e 33 68
e 33 71
e 33 73
e 33 76
e 33 79
e 33 83
e 33 86
e 33 89
e 33 92
e 33 95
e 33 97
e 33 98
e 34 44
e 34 47
e 34 50
e 34 58
e 34 60
e 34 63
e 34 70
e 34 71
e 34 90
e 34 94
e 35 38
e 35 47
e 35 50
e 35 56
e 35 57
e 35 60
e 35 62
e 35 65
e 35 66
e 35 68
e 35 72
e 35 80
e 36 48
e 36 50
e 36 56
e 36 59
e 36 63
e 36 65
e 36 67
e 36 79
e 36 80
e 37 38
e 37 39
e 37 42
e 37 44
e 37 54
e 37 55
e 37 57
e 37 58
e 37 59
e 37 61
e 37 69
e 37 70
e 37 72
e 37 74
e 37 82
e 37 83
e 37 85
e 37 86
e 37 87
e 37 96
e 37 97
e 37 99
e 38 41
e 38 44
e 38 49
e 38 55
e 38 56
e 38 58
e 38 59
e 38 60
e 38 68
e 38 69
e 38 71
e 38 80
e 38 84
e 38 86
e 38 87
e 38 88
e 38 90
e 38 91
e 39 44
e 39 45
e 39 46
e 39 49
e 39 51
e 39 57
e 39 65
e 39 70
e 39 77
e 39 82
e 39 85
e 39 92
e 39 94
e 39 96
e 39 98
e 39 100
e 40 41
e 40 43
e 40 48
e 40 57
e 40 63
e 40 66
e 40 69
e 40 71
e 40 83
e 40 84
e 40 86
e 40 88
e 40 90
e 40 91
e 40 93
e 40 94
e 40 95
e 40 96
e 41 43
e 41 44
e 41 45
e 41 49
e 41 57
e 41 60
e 41 66
e 41 70
e 41 72
e 41 75
e 41 81
e 41 83
e 41 86
e 41 94
e 42 45
e 42 47
e 42 53
e 42 55
e 42 56
e 42 57
e 42 58
e 42 59
e 42 60
e 42 67
e 42 69
e 42 92
e 43 49
e 43 56
e 43 57
e 43 59
e 43 65
e 43 67
e 43 70
e 43 72
e 43 85
e 43 88
e 43 91
e 43 97
e 44 45
e 44 46
e 44 63
e 44 78
e 44 91
e 44 98
e 45 48
e 45 49
e 45 52
e 45 53
e 45 60
e 45 63
e 45 68
e 45 71
e 45 76
e 45 86
e 46 64
e 46 81
e 46 84
e 46 87
e 46 96
e 47 52
e 47 60
e 47 62
e 47 67
e 47 72
e 47 86
e 47 97
e 48 51
e 48 52
e 48 59
e 48 74
e 48 80
e 48 84
e 48 85
e 48 92
e 48 96
e 49 55
e 49 57
e 49 62
e 49 70
e 49 78
e 49 79
e 49 83
e 49 84
e 49 85
e 49 86
e 49 88
e 49 91
e 50 56
e 50 73
e 50 96
e 50 99
e 51 52
e 51 54
e 51 70
e 51 78
e 51 80
e 51 90
e 51 91
e 51 98
e 52 56
e 52 62
e 52 73
e 52 76
e 52 78
e 52 83
e 52 84
e 52 86
e 52 89
e 52 92
e 52 97
e 52 100
e 53 62
e 53 75
e 53 80
e 53 83
e 53 88
e 53 91
e 54 59
e 54 69
e 54 73
e 54 77
e 54 82
e 54 85
e 54 96
e 54 99
e 55 58
e 55 64
e 55 68
e 55 71
e 55 73
e 55 74
e 55 81
e 55 87
e 55 89
e 55 90
e 55 92
e 55 94
e 55 95
e 55 98
e 55 99
e 56 62
e 56 63
e 56 67
e 56 69
e 56 75
e 56 83
e 56 95
e 56 98
e 56 99
e 57 59
e 57 60
e 57 67
e 57 70
e 57 77
e 57 78
e 57 86
e 57 91
e 57 92
e 57 96
e 58 59
e 58 61
e 58 65
e 58 66
e 58 67
e 58 70
e 58 74
e 58 87
e 58 88
e 58 96
e 59 73
e 59 76
e 59 83
e 59 84
e 59 87
e 59 88
e 59 98
e 60 72
e 60 73
e 60 75
e 60 79
e 60 80
e 60 83
e 60 84
e 60 95
e 61 62
e 61 66
e 61 74
e 61 91
e 62 66
e 62 69
e 62 78
e 62 85
e 62 87
e 62 88
e 62 93
e 62 95
e 62 97
e 62 100
e 63 68
e 63 75
e 63 76
e 63 78
e 63 82
e 63 91
e 63 94
e 64 72
e 64 82
e 64 87
e 64 94
e 64 97
e 64 98
e 65 68
e 65 71
e 65 73
e 65 79
e 65 84
e 65 88
e 65 90
e 65 97
e 66 72
e 66 75
e 66 79
e 66 83
e 66 90
e 66 98
e 67 69
e 67 90
e 67 92
e 67 99
e 68 74
e 68 81
e 68 83
e 68 85
e 68 95
e 68 97
e 69 73
e 69 75
e 69 77
e 69 80
e 69 82
e 69 84
e 69 85
e 69 87
e 69 90
e 69 92
e 70 72
e 70 73
e 70 80
e 70 84
e 70 93
e 70 95
e 70 100
e 71 74
e 71 76
e 71 82
e 71 83
e 71 88
e 71 89
e 71 90
e 71 92
e 71 100
e 72 73
e 72 74
e 72 79
e 72 82
e 72 83
e 72 86
e 72 89
e 72 99
e 73 84
e 73 85
e 73 88
e 73 95
e 73 96
e 73 99
e 74 91
e 74 92
e 74 94
e 75 77
e 75 79
e 75 82
e 75 87
e 75 96
e 75 98
e 75 99
e 76 85
e 76 89
e 77 88
e 77 90
e 77 92
e 77 93
e 77 96
e 78 82
e 78 86
e 78 100
e 79 80
e 79 82
e 80 81
e 80 87
e 80 91
e 80 95
e 80 97
e 81 82
e 81 84
e 81 85
e 81 93
e 81 95
e 81 98
e 81 99
e 82 85
e 82 95
e 82 98
e 83 84
e 83 85
e 83 91
e 83 96
e 84 85
e 84 91
e 84 92
e 84 93
e 84 97
e 85 90
e 85 92
e 85 96
e 85 97
e 85 100
e 86 88
e 86 92
e 86 93
e 86 95
e 88 91
e 88 94
e 88 95
e 88 100
e 89 91
e 89 94
e 90 94
e 91 97
e 92 96
e 95 96